200
150
100
100
100
99
99
99
98
98
98
98
97
97
97
97
95
95
94
94
93
93
92
92
91
91
90
90
90
90
89
89
89
89
88
88
87
86
85
84
84
84
84
83
83
82
82
82
82
81
80
79
78
78
77
76
76
75
74
74
74
73
72
71
71
70
70
70
70
70
70
69
69
68
68
68
67
66
65
64
64
63
63
62
62
61
60
59
57
57
57
56
55
55
55
55
54
54
53
53
52
52
52
52
50
48
48
48
47
47
46
46
45
45
44
44
43
43
43
42
42
42
42
41
41
40
40
39
39
36
35
34
33
32
32
31
30
29
29
28
28
27
27
24
24
24
24
23
23
23
23
23
23
21
21
20
20
19
19
18
17
17
17
16
16
15
15
15
15
14
14
13
13
13
12
12
12
12
11
11
11
10
10
9
9
8
8
8
8
7
7
7
6
5
4
4
3
3
1
1
1
1
